sat
(:max-memory                   18.05
 :memory                       18.05
 :nlsat-irrational-assignments 1
 :nlsat-propagations           7
 :nlsat-stages                 4
 :num-allocs                   22567
 :rlimit-count                 769
 :time                         0.00
 :total-time                   0.01)
